p tw 27 56
0 1
0 2
0 3
0 4
0 5
0 6
1 2
1 3
1 7
1 25
1 26
2 3
4 5
4 6
5 6
5 11
5 23
5 24
7 8
7 9
7 10
7 11
7 25
7 26
8 9
8 10
8 11
9 10
9 11
10 11
10 20
10 21
10 22
11 23
11 24
12 13
12 14
12 15
12 16
13 14
13 15
13 16
13 17
13 18
13 19
14 15
14 16
15 16
17 18
17 19
18 19
20 21
20 22
21 22
23 24
25 26
